10
30
14 8 12 7 11 8 11 11 12 
0 571 226 532 315 394 190 485 255 183 
571 0 346 119 448 577 495 162 330 403 
226 346 0 310 262 371 213 268 81 93 
532 119 310 0 481 471 497 54 324 388 
315 448 262 481 0 622 127 461 189 184 
394 577 371 471 622 0 533 419 452 438 
190 495 213 497 127 533 0 465 173 119 
485 162 268 54 461 419 465 0 292 352 
255 330 81 324 189 452 173 292 0 74 
183 403 93 388 184 438 119 352 74 0 
